0 0 0 0
0 1 0 0
0 2 0 0
0 3 0 0
0 4 0 1
0 5 0 5
0 6 0 2
0 7 0 6
0 8 0 5
0 9 0 3
0 10 0 5
0 11 0 2
0 12 0 10
0 13 2 3
0 14 0 6
0 15 0 9
0 16 0 8
0 17 0 11
0 18 0 4
0 19 0 10
0 20 0 11
0 21 0 7
0 22 0 8
0 23 0 13
0 24 0 13
0 25 0 16
0 26 0 17
0 27 0 17
0 28 0 22
0 29 0 18
0 30 0 13
0 31 0 23
